152,79
299,242
254,13
216,288
293,256
54,280
322,70
47,195
63,206
213,207
264,363
371,54
102,124
151,222
223,6
121,55
366,14
10,0
340,290
252,363
131,364
296,306
363,339
90,50
153,220
132,203
369,160
176,154
253,57
120,346
361,326
321,364
0,79
268,386
219,356
333,261
347,32
69,228
233,235
12,160
39,310
334,324
124,266
369,276
315,49
352,171
311,359
245,181
146,264
129,327
